c generated by sgen
p cnf 45 100
-2 -3 -4 0
-1 -3 -4 0
-1 -2 -4 0
-1 -2 -3 0
-6 -7 -8 0
-5 -7 -8 0
-5 -6 -8 0
-5 -6 -7 0
-10 -11 -12 0
-9 -11 -12 0
-9 -10 -12 0
-9 -10 -11 0
-14 -15 -16 0
-13 -15 -16 0
-13 -14 -16 0
-13 -14 -15 0
-18 -19 -20 0
-17 -19 -20 0
-17 -18 -20 0
-17 -18 -19 0
-22 -23 -24 0
-21 -23 -24 0
-21 -22 -24 0
-21 -22 -23 0
-26 -27 -28 0
-25 -27 -28 0
-25 -26 -28 0
-25 -26 -27 0
-30 -31 -32 0
-29 -31 -32 0
-29 -30 -32 0
-29 -30 -31 0
-34 -35 -36 0
-33 -35 -36 0
-33 -34 -36 0
-33 -34 -35 0
-38 -39 -40 0
-37 -39 -40 0
-37 -38 -40 0
-37 -38 -39 0
-41 -42 -43 0
-41 -42 -44 0
-41 -42 -45 0
-41 -43 -44 0
-41 -43 -45 0
-41 -44 -45 0
-42 -43 -44 0
-42 -43 -45 0
-42 -44 -45 0
-43 -44 -45 0
16 42 9 0
20 42 9 0
20 16 9 0
20 16 42 0
29 8 22 0
11 8 22 0
11 29 22 0
11 29 8 0
3 28 12 0
35 28 12 0
35 3 12 0
35 3 28 0
6 27 37 0
45 27 37 0
45 6 37 0
45 6 27 0
36 24 40 0
13 24 40 0
13 36 40 0
13 36 24 0
44 14 5 0
4 14 5 0
4 44 5 0
4 44 14 0
21 17 38 0
2 17 38 0
2 21 38 0
2 21 17 0
33 23 26 0
43 23 26 0
43 33 26 0
43 33 23 0
34 7 18 0
31 7 18 0
31 34 18 0
31 34 7 0
41 10 32 0
39 10 32 0
39 41 32 0
39 41 10 0
25 19 15 0
25 19 30 0
25 19 1 0
25 15 30 0
25 15 1 0
25 30 1 0
19 15 30 0
19 15 1 0
19 30 1 0
15 30 1 0
